max: Z; 
r0 >= 0.0; 
r1 >= 0.0; 
r2 >= 0.0; 
r3 >= 0.0; 
r4 >= 0.0; 
r5 >= 0.0; 
r6 >= 0.0; 
r7 >= 0.0; 
r8 >= 0.0; 
r9 >= 0.0; 
r10 >= 0.0; 
r11 >= 0.0; 
r12 >= 0.0; 
r13 >= 0.0; 
r14 >= 0.0; 
r15 >= 0.0; 
r16 >= 0.0; 
r17 >= 0.0; 
r18 >= 0.0; 
r19 >= 0.0; 
r20 >= 0.0; 
r21 >= 0.0; 
r22 >= 0.0; 
r23 >= 0.0; 
r24 >= 0.0; 
r25 >= 0.0; 
r26 >= 0.0; 
r27 >= 0.0; 
r28 >= 0.0; 
r29 >= 0.0; 
r30 >= 0.0; 
r31 >= 0.0; 
r32 >= 0.0; 
r33 >= 0.0; 
r34 >= 0.0; 
r35 >= 0.0; 
r36 >= 0.0; 
r37 >= 0.0; 
r38 >= 0.0; 
r39 >= 0.0; 
r40 >= 0.0; 
r41 >= 0.0; 
r42 >= 0.0; 
r43 >= 0.0; 
r44 >= 0.0; 
r45 >= 0.0; 
r46 >= 0.0; 
r47 >= 0.0; 
r48 >= 0.0; 
r49 >= 0.0; 
r50 >= 0.0; 
r51 >= 0.0; 
r52 >= 0.0; 
r53 >= 0.0; 
r54 >= 0.0; 
r55 >= 0.0; 
r56 >= 0.0; 
r57 >= 0.0; 
r58 >= 0.0; 
r59 >= 0.0; 
r60 >= 0.0; 
r61 >= 0.0; 
r62 >= 0.0; 
r63 >= 0.0; 
r64 >= 0.0; 
r65 >= 0.0; 
r66 >= 0.0; 
r67 >= 0.0; 
r68 >= 0.0; 
r69 >= 0.0; 
r70 >= 0.0; 
r71 >= 0.0; 
r72 >= 0.0; 
r73 >= 0.0; 
r74 >= 0.0; 
r75 >= 0.0; 
r76 >= 0.0; 
r77 >= 0.0; 
r78 >= 0.0; 
r79 >= 0.0; 
r80 >= 0.0; 
r81 >= 0.0; 
r82 >= 0.0; 
r83 >= 0.0; 
r84 >= 0.0; 
r85 >= 0.0; 
r86 >= 0.0; 
r87 >= 0.0; 
r88 >= 0.0; 
r89 >= 0.0; 
r90 >= 0.0; 
r91 >= 0.0; 
r92 >= 0.0; 
r93 >= 0.0; 
r94 >= 0.0; 
r95 >= 0.0; 
r96 >= 0.0; 
r97 >= 0.0; 
r98 >= 0.0; 
r99 >= 0.0; 
r100 >= 0.0; 
r101 >= 0.0; 
r102 >= 0.0; 
r103 >= 0.0; 
r104 >= 0.0; 
r105 >= 0.0; 
r106 >= 0.0; 
r107 >= 0.0; 
r108 >= 0.0; 
r109 >= 0.0; 
r110 >= 0.0; 
r111 >= 0.0; 
r112 >= 0.0; 
r113 >= 0.0; 
r114 >= 0.0; 
r115 >= 0.0; 
r116 >= 0.0; 
r117 >= 0.0; 
r118 >= 0.0; 
r119 >= 0.0; 
r120 >= 0.0; 
r121 >= 0.0; 
r122 >= 0.0; 
r123 >= 0.0; 
r124 >= 0.0; 
r125 >= 0.0; 
r126 >= 0.0; 
r127 >= 0.0; 
r128 >= 0.0; 
r129 >= 0.0; 
r130 >= 0.0; 
r131 >= 0.0; 
r132 >= 0.0; 
r133 >= 0.0; 
r134 >= 0.0; 
r135 >= 0.0; 
r136 >= 0.0; 
r137 >= 0.0; 
r138 >= 0.0; 
r139 >= 0.0; 
r140 >= 0.0; 
r141 >= 0.0; 
r142 >= 0.0; 
r143 >= 0.0; 
r144 >= 0.0; 
r145 >= 0.0; 
r146 >= 0.0; 
r147 >= 0.0; 
r148 >= 0.0; 
r149 >= 0.0; 
r150 >= 0.0; 
r151 >= 0.0; 
r152 >= 0.0; 
r153 >= 0.0; 
r154 >= 0.0; 
r155 >= 0.0; 
r156 >= 0.0; 
r157 >= 0.0; 
r158 >= 0.0; 
r159 >= 0.0; 
r160 >= 0.0; 
r161 >= 0.0; 
r162 >= 0.0; 
r163 >= 0.0; 
r164 >= 0.0; 
r165 >= 0.0; 
r166 >= 0.0; 
r167 >= 0.0; 
r168 >= 0.0; 
r169 >= 0.0; 
r170 >= 0.0; 
r171 >= 0.0; 
r172 >= 0.0; 
r173 >= 0.0; 
r174 >= 0.0; 
r175 >= 0.0; 
r176 >= 0.0; 
r177 >= 0.0; 
r178 >= 0.0; 
r179 >= 0.0; 
r180 >= 0.0; 
r181 >= 0.0; 
r182 >= 0.0; 
r183 >= 0.0; 
r184 >= 0.0; 
r185 >= 0.0; 
r186 >= 0.0; 
r187 >= 0.0; 
r188 >= 0.0; 
r189 >= 0.0; 
r190 >= 0.0; 
r191 >= 0.0; 
r192 >= 0.0; 
r193 >= 0.0; 
r194 >= 0.0; 
r195 >= 0.0; 
r196 >= 0.0; 
r197 >= 0.0; 
r198 >= 0.0; 
r199 >= 0.0; 
r0+r4+r19+r71+r106+r184+r197+r198 <= 100.0; 
r0+r98 <= 100.0; 
r1+r101 <= 100.0; 
r1 <= 100.0; 
r2+r176+r178 <= 100.0; 
r2+r8+r16+r107 <= 100.0; 
r2+r4 <= 100.0; 
r3+r34+r69+r73+r139 <= 100.0; 
r3+r6+r96+r121+r123 <= 100.0; 
r3+r43 <= 100.0; 
r4+r18+r19+r30+r32 <= 100.0; 
r4+r5+r131+r134 <= 100.0; 
r5+r9+r157+r185+r187+r189 <= 100.0; 
r5+r23+r196 <= 100.0; 
r6 <= 100.0; 
r6+r7+r121+r177 <= 100.0; 
r7+r8+r159 <= 100.0; 
r7+r177+r179 <= 100.0; 
r8+r175 <= 100.0; 
r9 <= 100.0; 
r9 <= 100.0; 
r9+r48 <= 100.0; 
r10+r104 <= 100.0; 
r10+r166 <= 100.0; 
r11+r13+r139 <= 100.0; 
r11+r31+r34+r45+r139+r176 <= 100.0; 
r11+r12+r31+r108 <= 100.0; 
r12+r33+r49+r135 <= 100.0; 
r12+r47+r49+r198 <= 100.0; 
r13+r106 <= 100.0; 
r13+r178 <= 100.0; 
r14+r55+r120 <= 100.0; 
r14+r82+r192 <= 100.0; 
r14+r62 <= 100.0; 
r15+r18+r50 <= 100.0; 
r15+r17 <= 100.0; 
r16+r19 <= 100.0; 
r16+r68 <= 100.0; 
r17+r39 <= 100.0; 
r17 <= 100.0; 
r18+r42+r88+r102 <= 100.0; 
r18+r98 <= 100.0; 
r19+r48+r69+r106+r108 <= 100.0; 
r20+r22+r24+r68+r152 <= 100.0; 
r20 <= 100.0; 
r21+r32+r173 <= 100.0; 
r21+r23 <= 100.0; 
r22+r152 <= 100.0; 
r22 <= 100.0; 
r23+r30 <= 100.0; 
r24 <= 100.0; 
r24+r163 <= 100.0; 
r25+r27+r44+r51 <= 100.0; 
r25 <= 100.0; 
r26+r29+r94+r147+r165 <= 100.0; 
r26+r126 <= 100.0; 
r27+r99+r182+r184 <= 100.0; 
r27+r101+r103 <= 100.0; 
r28+r57+r133+r145 <= 100.0; 
r28+r52+r145 <= 100.0; 
r28+r29+r112+r183 <= 100.0; 
r29+r117+r147+r148 <= 100.0; 
r31 <= 100.0; 
r32+r68+r188 <= 100.0; 
r33+r49+r71+r74 <= 100.0; 
r33+r34+r122 <= 100.0; 
r35+r172 <= 100.0; 
r35+r151+r153 <= 100.0; 
r36+r38+r79+r154 <= 100.0; 
r36+r37+r128+r174 <= 100.0; 
r37+r167 <= 100.0; 
r37+r127+r128 <= 100.0; 
r38+r153+r154 <= 100.0; 
r38+r156 <= 100.0; 
r39+r169 <= 100.0; 
r39+r191 <= 100.0; 
r40+r42 <= 100.0; 
r40+r57+r182 <= 100.0; 
r41+r47+r65+r136+r138 <= 100.0; 
r41 <= 100.0; 
r42+r59+r180 <= 100.0; 
r43+r45+r49 <= 100.0; 
r43+r184 <= 100.0; 
r44+r123+r179 <= 100.0; 
r44+r80+r87 <= 100.0; 
r46 <= 100.0; 
r46+r181+r184 <= 100.0; 
r47+r98 <= 100.0; 
r48+r66+r69+r131+r177 <= 100.0; 
r50+r133+r134 <= 100.0; 
r50+r99+r100+r104 <= 100.0; 
r51+r110 <= 100.0; 
r51+r95+r102 <= 100.0; 
r52+r103+r114+r117 <= 100.0; 
r52+r180+r182 <= 100.0; 
r53 <= 100.0; 
r53+r72+r135+r139 <= 100.0; 
r53+r124 <= 100.0; 
r54+r155 <= 100.0; 
r54+r171+r172 <= 100.0; 
r54 <= 100.0; 
r55+r104 <= 100.0; 
r55+r56+r134 <= 100.0; 
r56+r58+r124 <= 100.0; 
r56+r122+r124 <= 100.0; 
r57+r85+r88+r97 <= 100.0; 
r58+r77+r79 <= 100.0; 
r58+r150 <= 100.0; 
r59+r130 <= 100.0; 
r59 <= 100.0; 
r60+r162 <= 100.0; 
r61 <= 100.0; 
r61+r142 <= 100.0; 
r62+r166 <= 100.0; 
r62+r63+r119 <= 100.0; 
r63+r149 <= 100.0; 
r63+r113+r168 <= 100.0; 
r64+r72+r160 <= 100.0; 
r64+r138+r160 <= 100.0; 
r64+r83+r84 <= 100.0; 
r65+r67+r107+r136 <= 100.0; 
r65+r69 <= 100.0; 
r66+r105 <= 100.0; 
r66+r67 <= 100.0; 
r67+r107+r109 <= 100.0; 
r70+r116 <= 100.0; 
r70 <= 100.0; 
r71+r73+r178+r197 <= 100.0; 
r72+r193 <= 100.0; 
r73+r120+r124 <= 100.0; 
r74+r108+r199 <= 100.0; 
r74+r176+r199 <= 100.0; 
r75+r91 <= 100.0; 
r76+r127 <= 100.0; 
r76+r93 <= 100.0; 
r76+r93+r141+r143+r153 <= 100.0; 
r77+r152 <= 100.0; 
r77+r78 <= 100.0; 
r78+r137 <= 100.0; 
r78+r186+r196 <= 100.0; 
r79+r140+r154 <= 100.0; 
r80+r110+r113 <= 100.0; 
r80+r81+r149 <= 100.0; 
r81+r129 <= 100.0; 
r81+r89+r90+r94+r112 <= 100.0; 
r82+r123+r192 <= 100.0; 
r82+r83+r111 <= 100.0; 
r83+r190 <= 100.0; 
r84+r194 <= 100.0; 
r84+r189 <= 100.0; 
r85 <= 100.0; 
r86+r92 <= 100.0; 
r86+r113+r115 <= 100.0; 
r87+r89+r112+r126 <= 100.0; 
r87+r164 <= 100.0; 
r88+r181+r183 <= 100.0; 
r89+r94+r129+r133+r145+r147+r161 <= 100.0; 
r90+r148 <= 100.0; 
r91+r174 <= 100.0; 
r91+r93+r143 <= 100.0; 
r92+r146 <= 100.0; 
r92+r94+r118 <= 100.0; 
r95+r99 <= 100.0; 
r96 <= 100.0; 
r97+r129+r161 <= 100.0; 
r97+r109+r138 <= 100.0; 
r100+r102 <= 100.0; 
r101 <= 100.0; 
r103+r146 <= 100.0; 
r104+r168 <= 100.0; 
r109 <= 100.0; 
r110 <= 100.0; 
r111+r194 <= 100.0; 
r111+r114+r161+r164 <= 100.0; 
r114 <= 100.0; 
r115 <= 100.0; 
r116+r193 <= 100.0; 
r117 <= 100.0; 
r118+r143 <= 100.0; 
r118+r119 <= 100.0; 
r119+r142 <= 100.0; 
r121+r134 <= 100.0; 
r122+r173 <= 100.0; 
r125+r129 <= 100.0; 
r125+r146+r164 <= 100.0; 
r126+r148+r167 <= 100.0; 
r127+r170 <= 100.0; 
r128+r174 <= 100.0; 
r130+r132 <= 100.0; 
r131 <= 100.0; 
r132 <= 100.0; 
r132+r142 <= 100.0; 
r133 <= 100.0; 
r136 <= 100.0; 
r137 <= 100.0; 
r137+r198 <= 100.0; 
r140+r156 <= 100.0; 
r141+r144+r172 <= 100.0; 
r144+r151 <= 100.0; 
r144+r158 <= 100.0; 
r149+r160+r162 <= 100.0; 
r150 <= 100.0; 
r155 <= 100.0; 
r157+r159+r187 <= 100.0; 
r157+r158+r171 <= 100.0; 
r158+r171+r173 <= 100.0; 
r159 <= 100.0; 
r162+r163+r192 <= 100.0; 
r163 <= 100.0; 
r165 <= 100.0; 
r167+r169 <= 100.0; 
r168+r183 <= 100.0; 
r169+r193 <= 100.0; 
r179 <= 100.0; 
r181 <= 100.0; 
r185 <= 100.0; 
r186+r188 <= 100.0; 
r187 <= 100.0; 
r188+r195 <= 100.0; 
r189 <= 100.0; 
r191 <= 100.0; 
r194 <= 100.0; 
r195+r196 <= 100.0; 
r197+r199 <= 100.0; 
r0+r1+r2+r3+r4 -Z > 0.0; 
r5+r6+r7+r8+r9 -Z > 0.0; 
r10+r11+r12+r13+r14 -Z > 0.0; 
r15+r16+r17+r18+r19 -Z > 0.0; 
r20+r21+r22+r23+r24 -Z > 0.0; 
r25+r26+r27+r28+r29 -Z > 0.0; 
r30+r31+r32+r33+r34 -Z > 0.0; 
r35+r36+r37+r38+r39 -Z > 0.0; 
r40+r41+r42+r43+r44 -Z > 0.0; 
r45+r46+r47+r48+r49 -Z > 0.0; 
r50+r51+r52+r53+r54 -Z > 0.0; 
r55+r56+r57+r58+r59 -Z > 0.0; 
r60+r61+r62+r63+r64 -Z > 0.0; 
r65+r66+r67+r68+r69 -Z > 0.0; 
r70+r71+r72+r73+r74 -Z > 0.0; 
r75+r76+r77+r78+r79 -Z > 0.0; 
r80+r81+r82+r83+r84 -Z > 0.0; 
r85+r86+r87+r88+r89 -Z > 0.0; 
r90+r91+r92+r93+r94 -Z > 0.0; 
r95+r96+r97+r98+r99 -Z > 0.0; 
r100+r101+r102+r103+r104 -Z > 0.0; 
r105+r106+r107+r108+r109 -Z > 0.0; 
r110+r111+r112+r113+r114 -Z > 0.0; 
r115+r116+r117+r118+r119 -Z > 0.0; 
r120+r121+r122+r123+r124 -Z > 0.0; 
r125+r126+r127+r128+r129 -Z > 0.0; 
r130+r131+r132+r133+r134 -Z > 0.0; 
r135+r136+r137+r138+r139 -Z > 0.0; 
r140+r141+r142+r143+r144 -Z > 0.0; 
r145+r146+r147+r148+r149 -Z > 0.0; 
r150+r151+r152+r153+r154 -Z > 0.0; 
r155+r156+r157+r158+r159 -Z > 0.0; 
r160+r161+r162+r163+r164 -Z > 0.0; 
r165+r166+r167+r168+r169 -Z > 0.0; 
r170+r171+r172+r173+r174 -Z > 0.0; 
r175+r176+r177+r178+r179 -Z > 0.0; 
r180+r181+r182+r183+r184 -Z > 0.0; 
r185+r186+r187+r188+r189 -Z > 0.0; 
r190+r191+r192+r193+r194 -Z > 0.0; 
r195+r196+r197+r198+r199 -Z > 0.0; 
